% Generated by MiniZinc 2.9.4
% Solver library: 
% Command line invocation: /home/vro5/minizinc-custom/bin/minizinc -O3 -c --solver mzn-fzn -I /home/vro5/Coding/minizincHLstdlib/std --allow-unbounded-vars /home/vro5/Coding/AgenticSolvers/mznc2025_probs/fbd1/FBD1.mzn /home/vro5/Coding/AgenticSolvers/mznc2025_probs/fbd1/FBDk09.dzn 

predicate fzn_all_different_int(array [int] of var int: x);
array [1..2] of int: X_INTRODUCED_75_ = [1,-1];
array [1..2] of int: X_INTRODUCED_168_ = [1,-2];
array [1..2] of int: X_INTRODUCED_172_ = [1,-3];
var 1..359: X_INTRODUCED_16_;
var 2..360: X_INTRODUCED_17_;
var 3..361: X_INTRODUCED_18_;
var 4..362: X_INTRODUCED_19_;
var 5..363: X_INTRODUCED_20_;
var 6..364: X_INTRODUCED_21_;
var 7..365: X_INTRODUCED_22_;
var 8..366: X_INTRODUCED_23_;
var 9..367: X_INTRODUCED_24_;
var 1..735: n_star:: output_var;
var 2..718: X_INTRODUCED_27_ ::var_is_introduced :: is_defined_var;
var 4..720: X_INTRODUCED_28_ ::var_is_introduced :: is_defined_var;
var 6..722: X_INTRODUCED_29_ ::var_is_introduced :: is_defined_var;
var 8..724: X_INTRODUCED_30_ ::var_is_introduced :: is_defined_var;
var 10..726: X_INTRODUCED_31_ ::var_is_introduced :: is_defined_var;
var 12..728: X_INTRODUCED_32_ ::var_is_introduced :: is_defined_var;
var 14..730: X_INTRODUCED_33_ ::var_is_introduced :: is_defined_var;
var 16..732: X_INTRODUCED_34_ ::var_is_introduced :: is_defined_var;
var 18..734: X_INTRODUCED_35_ ::var_is_introduced :: is_defined_var;
var 3..719: X_INTRODUCED_38_ ::var_is_introduced :: is_defined_var;
var 4..720: X_INTRODUCED_39_ ::var_is_introduced :: is_defined_var;
var 5..721: X_INTRODUCED_40_ ::var_is_introduced :: is_defined_var;
var 6..722: X_INTRODUCED_41_ ::var_is_introduced :: is_defined_var;
var 7..723: X_INTRODUCED_42_ ::var_is_introduced :: is_defined_var;
var 8..724: X_INTRODUCED_43_ ::var_is_introduced :: is_defined_var;
var 9..725: X_INTRODUCED_44_ ::var_is_introduced :: is_defined_var;
var 10..726: X_INTRODUCED_45_ ::var_is_introduced :: is_defined_var;
var 5..721: X_INTRODUCED_46_ ::var_is_introduced :: is_defined_var;
var 6..722: X_INTRODUCED_47_ ::var_is_introduced :: is_defined_var;
var 7..723: X_INTRODUCED_48_ ::var_is_introduced :: is_defined_var;
var 8..724: X_INTRODUCED_49_ ::var_is_introduced :: is_defined_var;
var 9..725: X_INTRODUCED_50_ ::var_is_introduced :: is_defined_var;
var 10..726: X_INTRODUCED_51_ ::var_is_introduced :: is_defined_var;
var 11..727: X_INTRODUCED_52_ ::var_is_introduced :: is_defined_var;
var 7..723: X_INTRODUCED_53_ ::var_is_introduced :: is_defined_var;
var 8..724: X_INTRODUCED_54_ ::var_is_introduced :: is_defined_var;
var 9..725: X_INTRODUCED_55_ ::var_is_introduced :: is_defined_var;
var 10..726: X_INTRODUCED_56_ ::var_is_introduced :: is_defined_var;
var 11..727: X_INTRODUCED_57_ ::var_is_introduced :: is_defined_var;
var 12..728: X_INTRODUCED_58_ ::var_is_introduced :: is_defined_var;
var 9..725: X_INTRODUCED_59_ ::var_is_introduced :: is_defined_var;
var 10..726: X_INTRODUCED_60_ ::var_is_introduced :: is_defined_var;
var 11..727: X_INTRODUCED_61_ ::var_is_introduced :: is_defined_var;
var 12..728: X_INTRODUCED_62_ ::var_is_introduced :: is_defined_var;
var 13..729: X_INTRODUCED_63_ ::var_is_introduced :: is_defined_var;
var 11..727: X_INTRODUCED_64_ ::var_is_introduced :: is_defined_var;
var 12..728: X_INTRODUCED_65_ ::var_is_introduced :: is_defined_var;
var 13..729: X_INTRODUCED_66_ ::var_is_introduced :: is_defined_var;
var 14..730: X_INTRODUCED_67_ ::var_is_introduced :: is_defined_var;
var 13..729: X_INTRODUCED_68_ ::var_is_introduced :: is_defined_var;
var 14..730: X_INTRODUCED_69_ ::var_is_introduced :: is_defined_var;
var 15..731: X_INTRODUCED_70_ ::var_is_introduced :: is_defined_var;
var 15..731: X_INTRODUCED_71_ ::var_is_introduced :: is_defined_var;
var 16..732: X_INTRODUCED_72_ ::var_is_introduced :: is_defined_var;
var 17..733: X_INTRODUCED_73_ ::var_is_introduced :: is_defined_var;
var -357..359: X_INTRODUCED_76_ ::var_is_introduced :: is_defined_var;
var -356..360: X_INTRODUCED_77_ ::var_is_introduced :: is_defined_var;
var -355..361: X_INTRODUCED_78_ ::var_is_introduced :: is_defined_var;
var -354..362: X_INTRODUCED_79_ ::var_is_introduced :: is_defined_var;
var -353..363: X_INTRODUCED_80_ ::var_is_introduced :: is_defined_var;
var -352..364: X_INTRODUCED_81_ ::var_is_introduced :: is_defined_var;
var -351..365: X_INTRODUCED_82_ ::var_is_introduced :: is_defined_var;
var -350..366: X_INTRODUCED_83_ ::var_is_introduced :: is_defined_var;
var -357..359: X_INTRODUCED_84_ ::var_is_introduced :: is_defined_var;
var -356..360: X_INTRODUCED_85_ ::var_is_introduced :: is_defined_var;
var -355..361: X_INTRODUCED_86_ ::var_is_introduced :: is_defined_var;
var -354..362: X_INTRODUCED_87_ ::var_is_introduced :: is_defined_var;
var -353..363: X_INTRODUCED_88_ ::var_is_introduced :: is_defined_var;
var -352..364: X_INTRODUCED_89_ ::var_is_introduced :: is_defined_var;
var -351..365: X_INTRODUCED_90_ ::var_is_introduced :: is_defined_var;
var -357..359: X_INTRODUCED_91_ ::var_is_introduced :: is_defined_var;
var -356..360: X_INTRODUCED_92_ ::var_is_introduced :: is_defined_var;
var -355..361: X_INTRODUCED_93_ ::var_is_introduced :: is_defined_var;
var -354..362: X_INTRODUCED_94_ ::var_is_introduced :: is_defined_var;
var -353..363: X_INTRODUCED_95_ ::var_is_introduced :: is_defined_var;
var -352..364: X_INTRODUCED_96_ ::var_is_introduced :: is_defined_var;
var -357..359: X_INTRODUCED_97_ ::var_is_introduced :: is_defined_var;
var -356..360: X_INTRODUCED_98_ ::var_is_introduced :: is_defined_var;
var -355..361: X_INTRODUCED_99_ ::var_is_introduced :: is_defined_var;
var -354..362: X_INTRODUCED_100_ ::var_is_introduced :: is_defined_var;
var -353..363: X_INTRODUCED_101_ ::var_is_introduced :: is_defined_var;
var -357..359: X_INTRODUCED_102_ ::var_is_introduced :: is_defined_var;
var -356..360: X_INTRODUCED_103_ ::var_is_introduced :: is_defined_var;
var -355..361: X_INTRODUCED_104_ ::var_is_introduced :: is_defined_var;
var -354..362: X_INTRODUCED_105_ ::var_is_introduced :: is_defined_var;
var -357..359: X_INTRODUCED_106_ ::var_is_introduced :: is_defined_var;
var -356..360: X_INTRODUCED_107_ ::var_is_introduced :: is_defined_var;
var -355..361: X_INTRODUCED_108_ ::var_is_introduced :: is_defined_var;
var -357..359: X_INTRODUCED_109_ ::var_is_introduced :: is_defined_var;
var -356..360: X_INTRODUCED_110_ ::var_is_introduced :: is_defined_var;
var -357..359: X_INTRODUCED_111_ ::var_is_introduced :: is_defined_var;
var -699..1467: X_INTRODUCED_114_ ::var_is_introduced :: is_defined_var;
var -701..1465: X_INTRODUCED_115_ ::var_is_introduced :: is_defined_var;
var -703..1463: X_INTRODUCED_116_ ::var_is_introduced :: is_defined_var;
var -705..1461: X_INTRODUCED_117_ ::var_is_introduced :: is_defined_var;
var -707..1459: X_INTRODUCED_118_ ::var_is_introduced :: is_defined_var;
var -709..1457: X_INTRODUCED_119_ ::var_is_introduced :: is_defined_var;
var -711..1455: X_INTRODUCED_120_ ::var_is_introduced :: is_defined_var;
var -713..1453: X_INTRODUCED_121_ ::var_is_introduced :: is_defined_var;
var -700..1466: X_INTRODUCED_124_ ::var_is_introduced :: is_defined_var;
var -701..1465: X_INTRODUCED_125_ ::var_is_introduced :: is_defined_var;
var -702..1464: X_INTRODUCED_126_ ::var_is_introduced :: is_defined_var;
var -703..1463: X_INTRODUCED_127_ ::var_is_introduced :: is_defined_var;
var -704..1462: X_INTRODUCED_128_ ::var_is_introduced :: is_defined_var;
var -705..1461: X_INTRODUCED_129_ ::var_is_introduced :: is_defined_var;
var -706..1460: X_INTRODUCED_130_ ::var_is_introduced :: is_defined_var;
var -349..1101: X_INTRODUCED_131_ ::var_is_introduced :: is_defined_var;
var -702..1464: X_INTRODUCED_132_ ::var_is_introduced :: is_defined_var;
var -703..1463: X_INTRODUCED_133_ ::var_is_introduced :: is_defined_var;
var -704..1462: X_INTRODUCED_134_ ::var_is_introduced :: is_defined_var;
var -705..1461: X_INTRODUCED_135_ ::var_is_introduced :: is_defined_var;
var -706..1460: X_INTRODUCED_136_ ::var_is_introduced :: is_defined_var;
var -707..1459: X_INTRODUCED_137_ ::var_is_introduced :: is_defined_var;
var -350..1100: X_INTRODUCED_138_ ::var_is_introduced :: is_defined_var;
var -704..1462: X_INTRODUCED_139_ ::var_is_introduced :: is_defined_var;
var -705..1461: X_INTRODUCED_140_ ::var_is_introduced :: is_defined_var;
var -706..1460: X_INTRODUCED_141_ ::var_is_introduced :: is_defined_var;
var -707..1459: X_INTRODUCED_142_ ::var_is_introduced :: is_defined_var;
var -708..1458: X_INTRODUCED_143_ ::var_is_introduced :: is_defined_var;
var -351..1099: X_INTRODUCED_144_ ::var_is_introduced :: is_defined_var;
var -706..1460: X_INTRODUCED_145_ ::var_is_introduced :: is_defined_var;
var -707..1459: X_INTRODUCED_146_ ::var_is_introduced :: is_defined_var;
var -708..1458: X_INTRODUCED_147_ ::var_is_introduced :: is_defined_var;
var -709..1457: X_INTRODUCED_148_ ::var_is_introduced :: is_defined_var;
var -352..1098: X_INTRODUCED_149_ ::var_is_introduced :: is_defined_var;
var -708..1458: X_INTRODUCED_150_ ::var_is_introduced :: is_defined_var;
var -709..1457: X_INTRODUCED_151_ ::var_is_introduced :: is_defined_var;
var -710..1456: X_INTRODUCED_152_ ::var_is_introduced :: is_defined_var;
var -353..1097: X_INTRODUCED_153_ ::var_is_introduced :: is_defined_var;
var -710..1456: X_INTRODUCED_154_ ::var_is_introduced :: is_defined_var;
var -711..1455: X_INTRODUCED_155_ ::var_is_introduced :: is_defined_var;
var -354..1096: X_INTRODUCED_156_ ::var_is_introduced :: is_defined_var;
var -712..1454: X_INTRODUCED_157_ ::var_is_introduced :: is_defined_var;
var -355..1095: X_INTRODUCED_158_ ::var_is_introduced :: is_defined_var;
var -356..1094: X_INTRODUCED_159_ ::var_is_introduced :: is_defined_var;
var 19..1469: N:: is_defined_var;
array [1..9] of var int: n:: output_array([1..9]) = [X_INTRODUCED_16_,X_INTRODUCED_17_,X_INTRODUCED_18_,X_INTRODUCED_19_,X_INTRODUCED_20_,X_INTRODUCED_21_,X_INTRODUCED_22_,X_INTRODUCED_23_,X_INTRODUCED_24_];
array [1..135] of var int: X_INTRODUCED_161_ = [X_INTRODUCED_16_,X_INTRODUCED_17_,X_INTRODUCED_18_,X_INTRODUCED_19_,X_INTRODUCED_20_,X_INTRODUCED_21_,X_INTRODUCED_22_,X_INTRODUCED_23_,X_INTRODUCED_24_,X_INTRODUCED_76_,X_INTRODUCED_77_,X_INTRODUCED_78_,X_INTRODUCED_79_,X_INTRODUCED_80_,X_INTRODUCED_81_,X_INTRODUCED_82_,X_INTRODUCED_83_,X_INTRODUCED_84_,X_INTRODUCED_85_,X_INTRODUCED_86_,X_INTRODUCED_87_,X_INTRODUCED_88_,X_INTRODUCED_89_,X_INTRODUCED_90_,X_INTRODUCED_91_,X_INTRODUCED_92_,X_INTRODUCED_93_,X_INTRODUCED_94_,X_INTRODUCED_95_,X_INTRODUCED_96_,X_INTRODUCED_97_,X_INTRODUCED_98_,X_INTRODUCED_99_,X_INTRODUCED_100_,X_INTRODUCED_101_,X_INTRODUCED_102_,X_INTRODUCED_103_,X_INTRODUCED_104_,X_INTRODUCED_105_,X_INTRODUCED_106_,X_INTRODUCED_107_,X_INTRODUCED_108_,X_INTRODUCED_109_,X_INTRODUCED_110_,X_INTRODUCED_111_,X_INTRODUCED_38_,X_INTRODUCED_39_,X_INTRODUCED_40_,X_INTRODUCED_41_,X_INTRODUCED_42_,X_INTRODUCED_43_,X_INTRODUCED_44_,X_INTRODUCED_45_,X_INTRODUCED_46_,X_INTRODUCED_47_,X_INTRODUCED_48_,X_INTRODUCED_49_,X_INTRODUCED_50_,X_INTRODUCED_51_,X_INTRODUCED_52_,X_INTRODUCED_53_,X_INTRODUCED_54_,X_INTRODUCED_55_,X_INTRODUCED_56_,X_INTRODUCED_57_,X_INTRODUCED_58_,X_INTRODUCED_59_,X_INTRODUCED_60_,X_INTRODUCED_61_,X_INTRODUCED_62_,X_INTRODUCED_63_,X_INTRODUCED_64_,X_INTRODUCED_65_,X_INTRODUCED_66_,X_INTRODUCED_67_,X_INTRODUCED_68_,X_INTRODUCED_69_,X_INTRODUCED_70_,X_INTRODUCED_71_,X_INTRODUCED_72_,X_INTRODUCED_73_,X_INTRODUCED_27_,X_INTRODUCED_28_,X_INTRODUCED_29_,X_INTRODUCED_30_,X_INTRODUCED_31_,X_INTRODUCED_32_,X_INTRODUCED_33_,X_INTRODUCED_34_,X_INTRODUCED_35_,X_INTRODUCED_124_,X_INTRODUCED_125_,X_INTRODUCED_126_,X_INTRODUCED_127_,X_INTRODUCED_128_,X_INTRODUCED_129_,X_INTRODUCED_130_,X_INTRODUCED_131_,X_INTRODUCED_132_,X_INTRODUCED_133_,X_INTRODUCED_134_,X_INTRODUCED_135_,X_INTRODUCED_136_,X_INTRODUCED_137_,X_INTRODUCED_138_,X_INTRODUCED_139_,X_INTRODUCED_140_,X_INTRODUCED_141_,X_INTRODUCED_142_,X_INTRODUCED_143_,X_INTRODUCED_144_,X_INTRODUCED_145_,X_INTRODUCED_146_,X_INTRODUCED_147_,X_INTRODUCED_148_,X_INTRODUCED_149_,X_INTRODUCED_150_,X_INTRODUCED_151_,X_INTRODUCED_152_,X_INTRODUCED_153_,X_INTRODUCED_154_,X_INTRODUCED_155_,X_INTRODUCED_156_,X_INTRODUCED_157_,X_INTRODUCED_158_,X_INTRODUCED_159_,X_INTRODUCED_114_,X_INTRODUCED_115_,X_INTRODUCED_116_,X_INTRODUCED_117_,X_INTRODUCED_118_,X_INTRODUCED_119_,X_INTRODUCED_120_,X_INTRODUCED_121_,n_star];
array [1..10] of var int: X_INTRODUCED_180_ ::var_is_introduced  = [X_INTRODUCED_16_,X_INTRODUCED_17_,X_INTRODUCED_18_,X_INTRODUCED_19_,X_INTRODUCED_20_,X_INTRODUCED_21_,X_INTRODUCED_22_,X_INTRODUCED_23_,X_INTRODUCED_24_,n_star];
constraint int_lin_le(X_INTRODUCED_75_,[X_INTRODUCED_16_,X_INTRODUCED_17_],-1);
constraint int_lin_le(X_INTRODUCED_75_,[X_INTRODUCED_17_,X_INTRODUCED_18_],-1);
constraint int_lin_le(X_INTRODUCED_75_,[X_INTRODUCED_18_,X_INTRODUCED_19_],-1);
constraint int_lin_le(X_INTRODUCED_75_,[X_INTRODUCED_19_,X_INTRODUCED_20_],-1);
constraint int_lin_le(X_INTRODUCED_75_,[X_INTRODUCED_20_,X_INTRODUCED_21_],-1);
constraint int_lin_le(X_INTRODUCED_75_,[X_INTRODUCED_21_,X_INTRODUCED_22_],-1);
constraint int_lin_le(X_INTRODUCED_75_,[X_INTRODUCED_22_,X_INTRODUCED_23_],-1);
constraint int_lin_le(X_INTRODUCED_75_,[X_INTRODUCED_23_,X_INTRODUCED_24_],-1);
constraint fzn_all_different_int(X_INTRODUCED_161_);
constraint int_lin_le(X_INTRODUCED_168_,[n_star,X_INTRODUCED_24_],1);
constraint int_lin_ne(X_INTRODUCED_168_,[X_INTRODUCED_17_,X_INTRODUCED_16_],0);
constraint int_lin_ne(X_INTRODUCED_168_,[X_INTRODUCED_18_,X_INTRODUCED_16_],0);
constraint int_lin_ne(X_INTRODUCED_168_,[X_INTRODUCED_19_,X_INTRODUCED_16_],0);
constraint int_lin_ne(X_INTRODUCED_168_,[X_INTRODUCED_20_,X_INTRODUCED_16_],0);
constraint int_lin_ne(X_INTRODUCED_168_,[X_INTRODUCED_21_,X_INTRODUCED_16_],0);
constraint int_lin_ne(X_INTRODUCED_168_,[X_INTRODUCED_22_,X_INTRODUCED_16_],0);
constraint int_lin_ne(X_INTRODUCED_168_,[X_INTRODUCED_23_,X_INTRODUCED_16_],0);
constraint int_lin_ne(X_INTRODUCED_168_,[X_INTRODUCED_24_,X_INTRODUCED_16_],0);
constraint int_lin_ne(X_INTRODUCED_168_,[X_INTRODUCED_18_,X_INTRODUCED_17_],0);
constraint int_lin_ne(X_INTRODUCED_168_,[X_INTRODUCED_19_,X_INTRODUCED_17_],0);
constraint int_lin_ne(X_INTRODUCED_168_,[X_INTRODUCED_20_,X_INTRODUCED_17_],0);
constraint int_lin_ne(X_INTRODUCED_168_,[X_INTRODUCED_21_,X_INTRODUCED_17_],0);
constraint int_lin_ne(X_INTRODUCED_168_,[X_INTRODUCED_22_,X_INTRODUCED_17_],0);
constraint int_lin_ne(X_INTRODUCED_168_,[X_INTRODUCED_23_,X_INTRODUCED_17_],0);
constraint int_lin_ne(X_INTRODUCED_168_,[X_INTRODUCED_24_,X_INTRODUCED_17_],0);
constraint int_lin_ne(X_INTRODUCED_168_,[X_INTRODUCED_19_,X_INTRODUCED_18_],0);
constraint int_lin_ne(X_INTRODUCED_168_,[X_INTRODUCED_20_,X_INTRODUCED_18_],0);
constraint int_lin_ne(X_INTRODUCED_168_,[X_INTRODUCED_21_,X_INTRODUCED_18_],0);
constraint int_lin_ne(X_INTRODUCED_168_,[X_INTRODUCED_22_,X_INTRODUCED_18_],0);
constraint int_lin_ne(X_INTRODUCED_168_,[X_INTRODUCED_23_,X_INTRODUCED_18_],0);
constraint int_lin_ne(X_INTRODUCED_168_,[X_INTRODUCED_24_,X_INTRODUCED_18_],0);
constraint int_lin_ne(X_INTRODUCED_168_,[X_INTRODUCED_20_,X_INTRODUCED_19_],0);
constraint int_lin_ne(X_INTRODUCED_168_,[X_INTRODUCED_21_,X_INTRODUCED_19_],0);
constraint int_lin_ne(X_INTRODUCED_168_,[X_INTRODUCED_22_,X_INTRODUCED_19_],0);
constraint int_lin_ne(X_INTRODUCED_168_,[X_INTRODUCED_23_,X_INTRODUCED_19_],0);
constraint int_lin_ne(X_INTRODUCED_168_,[X_INTRODUCED_24_,X_INTRODUCED_19_],0);
constraint int_lin_ne(X_INTRODUCED_168_,[X_INTRODUCED_21_,X_INTRODUCED_20_],0);
constraint int_lin_ne(X_INTRODUCED_168_,[X_INTRODUCED_22_,X_INTRODUCED_20_],0);
constraint int_lin_ne(X_INTRODUCED_168_,[X_INTRODUCED_23_,X_INTRODUCED_20_],0);
constraint int_lin_ne(X_INTRODUCED_168_,[X_INTRODUCED_24_,X_INTRODUCED_20_],0);
constraint int_lin_ne(X_INTRODUCED_168_,[X_INTRODUCED_22_,X_INTRODUCED_21_],0);
constraint int_lin_ne(X_INTRODUCED_168_,[X_INTRODUCED_23_,X_INTRODUCED_21_],0);
constraint int_lin_ne(X_INTRODUCED_168_,[X_INTRODUCED_24_,X_INTRODUCED_21_],0);
constraint int_lin_ne(X_INTRODUCED_168_,[X_INTRODUCED_23_,X_INTRODUCED_22_],0);
constraint int_lin_ne(X_INTRODUCED_168_,[X_INTRODUCED_24_,X_INTRODUCED_22_],0);
constraint int_lin_ne(X_INTRODUCED_168_,[X_INTRODUCED_24_,X_INTRODUCED_23_],0);
constraint int_lin_ne(X_INTRODUCED_172_,[X_INTRODUCED_17_,X_INTRODUCED_16_],0);
constraint int_lin_ne(X_INTRODUCED_172_,[X_INTRODUCED_18_,X_INTRODUCED_16_],0);
constraint int_lin_ne(X_INTRODUCED_172_,[X_INTRODUCED_19_,X_INTRODUCED_16_],0);
constraint int_lin_ne(X_INTRODUCED_172_,[X_INTRODUCED_20_,X_INTRODUCED_16_],0);
constraint int_lin_ne(X_INTRODUCED_172_,[X_INTRODUCED_21_,X_INTRODUCED_16_],0);
constraint int_lin_ne(X_INTRODUCED_172_,[X_INTRODUCED_22_,X_INTRODUCED_16_],0);
constraint int_lin_ne(X_INTRODUCED_172_,[X_INTRODUCED_23_,X_INTRODUCED_16_],0);
constraint int_lin_ne(X_INTRODUCED_172_,[X_INTRODUCED_24_,X_INTRODUCED_16_],0);
constraint int_lin_ne(X_INTRODUCED_172_,[X_INTRODUCED_18_,X_INTRODUCED_17_],0);
constraint int_lin_ne(X_INTRODUCED_172_,[X_INTRODUCED_19_,X_INTRODUCED_17_],0);
constraint int_lin_ne(X_INTRODUCED_172_,[X_INTRODUCED_20_,X_INTRODUCED_17_],0);
constraint int_lin_ne(X_INTRODUCED_172_,[X_INTRODUCED_21_,X_INTRODUCED_17_],0);
constraint int_lin_ne(X_INTRODUCED_172_,[X_INTRODUCED_22_,X_INTRODUCED_17_],0);
constraint int_lin_ne(X_INTRODUCED_172_,[X_INTRODUCED_23_,X_INTRODUCED_17_],0);
constraint int_lin_ne(X_INTRODUCED_172_,[X_INTRODUCED_24_,X_INTRODUCED_17_],0);
constraint int_lin_ne(X_INTRODUCED_172_,[X_INTRODUCED_19_,X_INTRODUCED_18_],0);
constraint int_lin_ne(X_INTRODUCED_172_,[X_INTRODUCED_20_,X_INTRODUCED_18_],0);
constraint int_lin_ne(X_INTRODUCED_172_,[X_INTRODUCED_21_,X_INTRODUCED_18_],0);
constraint int_lin_ne(X_INTRODUCED_172_,[X_INTRODUCED_22_,X_INTRODUCED_18_],0);
constraint int_lin_ne(X_INTRODUCED_172_,[X_INTRODUCED_23_,X_INTRODUCED_18_],0);
constraint int_lin_ne(X_INTRODUCED_172_,[X_INTRODUCED_24_,X_INTRODUCED_18_],0);
constraint int_lin_ne(X_INTRODUCED_172_,[X_INTRODUCED_20_,X_INTRODUCED_19_],0);
constraint int_lin_ne(X_INTRODUCED_172_,[X_INTRODUCED_21_,X_INTRODUCED_19_],0);
constraint int_lin_ne(X_INTRODUCED_172_,[X_INTRODUCED_22_,X_INTRODUCED_19_],0);
constraint int_lin_ne(X_INTRODUCED_172_,[X_INTRODUCED_23_,X_INTRODUCED_19_],0);
constraint int_lin_ne(X_INTRODUCED_172_,[X_INTRODUCED_24_,X_INTRODUCED_19_],0);
constraint int_lin_ne(X_INTRODUCED_172_,[X_INTRODUCED_21_,X_INTRODUCED_20_],0);
constraint int_lin_ne(X_INTRODUCED_172_,[X_INTRODUCED_22_,X_INTRODUCED_20_],0);
constraint int_lin_ne(X_INTRODUCED_172_,[X_INTRODUCED_23_,X_INTRODUCED_20_],0);
constraint int_lin_ne(X_INTRODUCED_172_,[X_INTRODUCED_24_,X_INTRODUCED_20_],0);
constraint int_lin_ne(X_INTRODUCED_172_,[X_INTRODUCED_22_,X_INTRODUCED_21_],0);
constraint int_lin_ne(X_INTRODUCED_172_,[X_INTRODUCED_23_,X_INTRODUCED_21_],0);
constraint int_lin_ne(X_INTRODUCED_172_,[X_INTRODUCED_24_,X_INTRODUCED_21_],0);
constraint int_lin_ne(X_INTRODUCED_172_,[X_INTRODUCED_23_,X_INTRODUCED_22_],0);
constraint int_lin_ne(X_INTRODUCED_172_,[X_INTRODUCED_24_,X_INTRODUCED_22_],0);
constraint int_lin_ne(X_INTRODUCED_172_,[X_INTRODUCED_24_,X_INTRODUCED_23_],0);
constraint int_lin_eq([2,-1],[X_INTRODUCED_16_,X_INTRODUCED_27_],0):: defines_var(X_INTRODUCED_27_);
constraint int_lin_eq([2,-1],[X_INTRODUCED_17_,X_INTRODUCED_28_],0):: defines_var(X_INTRODUCED_28_);
constraint int_lin_eq([2,-1],[X_INTRODUCED_18_,X_INTRODUCED_29_],0):: defines_var(X_INTRODUCED_29_);
constraint int_lin_eq([2,-1],[X_INTRODUCED_19_,X_INTRODUCED_30_],0):: defines_var(X_INTRODUCED_30_);
constraint int_lin_eq([2,-1],[X_INTRODUCED_20_,X_INTRODUCED_31_],0):: defines_var(X_INTRODUCED_31_);
constraint int_lin_eq([2,-1],[X_INTRODUCED_21_,X_INTRODUCED_32_],0):: defines_var(X_INTRODUCED_32_);
constraint int_lin_eq([2,-1],[X_INTRODUCED_22_,X_INTRODUCED_33_],0):: defines_var(X_INTRODUCED_33_);
constraint int_lin_eq([2,-1],[X_INTRODUCED_23_,X_INTRODUCED_34_],0):: defines_var(X_INTRODUCED_34_);
constraint int_lin_eq([2,-1],[X_INTRODUCED_24_,X_INTRODUCED_35_],0):: defines_var(X_INTRODUCED_35_);
constraint int_lin_eq([1,1,-1],[X_INTRODUCED_17_,X_INTRODUCED_16_,X_INTRODUCED_38_],0):: defines_var(X_INTRODUCED_38_);
constraint int_lin_eq([1,1,-1],[X_INTRODUCED_18_,X_INTRODUCED_16_,X_INTRODUCED_39_],0):: defines_var(X_INTRODUCED_39_);
constraint int_lin_eq([1,1,-1],[X_INTRODUCED_19_,X_INTRODUCED_16_,X_INTRODUCED_40_],0):: defines_var(X_INTRODUCED_40_);
constraint int_lin_eq([1,1,-1],[X_INTRODUCED_20_,X_INTRODUCED_16_,X_INTRODUCED_41_],0):: defines_var(X_INTRODUCED_41_);
constraint int_lin_eq([1,1,-1],[X_INTRODUCED_21_,X_INTRODUCED_16_,X_INTRODUCED_42_],0):: defines_var(X_INTRODUCED_42_);
constraint int_lin_eq([1,1,-1],[X_INTRODUCED_22_,X_INTRODUCED_16_,X_INTRODUCED_43_],0):: defines_var(X_INTRODUCED_43_);
constraint int_lin_eq([1,1,-1],[X_INTRODUCED_23_,X_INTRODUCED_16_,X_INTRODUCED_44_],0):: defines_var(X_INTRODUCED_44_);
constraint int_lin_eq([1,1,-1],[X_INTRODUCED_24_,X_INTRODUCED_16_,X_INTRODUCED_45_],0):: defines_var(X_INTRODUCED_45_);
constraint int_lin_eq([1,1,-1],[X_INTRODUCED_18_,X_INTRODUCED_17_,X_INTRODUCED_46_],0):: defines_var(X_INTRODUCED_46_);
constraint int_lin_eq([1,1,-1],[X_INTRODUCED_19_,X_INTRODUCED_17_,X_INTRODUCED_47_],0):: defines_var(X_INTRODUCED_47_);
constraint int_lin_eq([1,1,-1],[X_INTRODUCED_20_,X_INTRODUCED_17_,X_INTRODUCED_48_],0):: defines_var(X_INTRODUCED_48_);
constraint int_lin_eq([1,1,-1],[X_INTRODUCED_21_,X_INTRODUCED_17_,X_INTRODUCED_49_],0):: defines_var(X_INTRODUCED_49_);
constraint int_lin_eq([1,1,-1],[X_INTRODUCED_22_,X_INTRODUCED_17_,X_INTRODUCED_50_],0):: defines_var(X_INTRODUCED_50_);
constraint int_lin_eq([1,1,-1],[X_INTRODUCED_23_,X_INTRODUCED_17_,X_INTRODUCED_51_],0):: defines_var(X_INTRODUCED_51_);
constraint int_lin_eq([1,1,-1],[X_INTRODUCED_24_,X_INTRODUCED_17_,X_INTRODUCED_52_],0):: defines_var(X_INTRODUCED_52_);
constraint int_lin_eq([1,1,-1],[X_INTRODUCED_19_,X_INTRODUCED_18_,X_INTRODUCED_53_],0):: defines_var(X_INTRODUCED_53_);
constraint int_lin_eq([1,1,-1],[X_INTRODUCED_20_,X_INTRODUCED_18_,X_INTRODUCED_54_],0):: defines_var(X_INTRODUCED_54_);
constraint int_lin_eq([1,1,-1],[X_INTRODUCED_21_,X_INTRODUCED_18_,X_INTRODUCED_55_],0):: defines_var(X_INTRODUCED_55_);
constraint int_lin_eq([1,1,-1],[X_INTRODUCED_22_,X_INTRODUCED_18_,X_INTRODUCED_56_],0):: defines_var(X_INTRODUCED_56_);
constraint int_lin_eq([1,1,-1],[X_INTRODUCED_23_,X_INTRODUCED_18_,X_INTRODUCED_57_],0):: defines_var(X_INTRODUCED_57_);
constraint int_lin_eq([1,1,-1],[X_INTRODUCED_24_,X_INTRODUCED_18_,X_INTRODUCED_58_],0):: defines_var(X_INTRODUCED_58_);
constraint int_lin_eq([1,1,-1],[X_INTRODUCED_20_,X_INTRODUCED_19_,X_INTRODUCED_59_],0):: defines_var(X_INTRODUCED_59_);
constraint int_lin_eq([1,1,-1],[X_INTRODUCED_21_,X_INTRODUCED_19_,X_INTRODUCED_60_],0):: defines_var(X_INTRODUCED_60_);
constraint int_lin_eq([1,1,-1],[X_INTRODUCED_22_,X_INTRODUCED_19_,X_INTRODUCED_61_],0):: defines_var(X_INTRODUCED_61_);
constraint int_lin_eq([1,1,-1],[X_INTRODUCED_23_,X_INTRODUCED_19_,X_INTRODUCED_62_],0):: defines_var(X_INTRODUCED_62_);
constraint int_lin_eq([1,1,-1],[X_INTRODUCED_24_,X_INTRODUCED_19_,X_INTRODUCED_63_],0):: defines_var(X_INTRODUCED_63_);
constraint int_lin_eq([1,1,-1],[X_INTRODUCED_21_,X_INTRODUCED_20_,X_INTRODUCED_64_],0):: defines_var(X_INTRODUCED_64_);
constraint int_lin_eq([1,1,-1],[X_INTRODUCED_22_,X_INTRODUCED_20_,X_INTRODUCED_65_],0):: defines_var(X_INTRODUCED_65_);
constraint int_lin_eq([1,1,-1],[X_INTRODUCED_23_,X_INTRODUCED_20_,X_INTRODUCED_66_],0):: defines_var(X_INTRODUCED_66_);
constraint int_lin_eq([1,1,-1],[X_INTRODUCED_24_,X_INTRODUCED_20_,X_INTRODUCED_67_],0):: defines_var(X_INTRODUCED_67_);
constraint int_lin_eq([1,1,-1],[X_INTRODUCED_22_,X_INTRODUCED_21_,X_INTRODUCED_68_],0):: defines_var(X_INTRODUCED_68_);
constraint int_lin_eq([1,1,-1],[X_INTRODUCED_23_,X_INTRODUCED_21_,X_INTRODUCED_69_],0):: defines_var(X_INTRODUCED_69_);
constraint int_lin_eq([1,1,-1],[X_INTRODUCED_24_,X_INTRODUCED_21_,X_INTRODUCED_70_],0):: defines_var(X_INTRODUCED_70_);
constraint int_lin_eq([1,1,-1],[X_INTRODUCED_23_,X_INTRODUCED_22_,X_INTRODUCED_71_],0):: defines_var(X_INTRODUCED_71_);
constraint int_lin_eq([1,1,-1],[X_INTRODUCED_24_,X_INTRODUCED_22_,X_INTRODUCED_72_],0):: defines_var(X_INTRODUCED_72_);
constraint int_lin_eq([1,1,-1],[X_INTRODUCED_24_,X_INTRODUCED_23_,X_INTRODUCED_73_],0):: defines_var(X_INTRODUCED_73_);
constraint int_lin_eq([1,-1,-1],[X_INTRODUCED_17_,X_INTRODUCED_16_,X_INTRODUCED_76_],0):: defines_var(X_INTRODUCED_76_);
constraint int_lin_eq([1,-1,-1],[X_INTRODUCED_18_,X_INTRODUCED_16_,X_INTRODUCED_77_],0):: defines_var(X_INTRODUCED_77_);
constraint int_lin_eq([1,-1,-1],[X_INTRODUCED_19_,X_INTRODUCED_16_,X_INTRODUCED_78_],0):: defines_var(X_INTRODUCED_78_);
constraint int_lin_eq([1,-1,-1],[X_INTRODUCED_20_,X_INTRODUCED_16_,X_INTRODUCED_79_],0):: defines_var(X_INTRODUCED_79_);
constraint int_lin_eq([1,-1,-1],[X_INTRODUCED_21_,X_INTRODUCED_16_,X_INTRODUCED_80_],0):: defines_var(X_INTRODUCED_80_);
constraint int_lin_eq([1,-1,-1],[X_INTRODUCED_22_,X_INTRODUCED_16_,X_INTRODUCED_81_],0):: defines_var(X_INTRODUCED_81_);
constraint int_lin_eq([1,-1,-1],[X_INTRODUCED_23_,X_INTRODUCED_16_,X_INTRODUCED_82_],0):: defines_var(X_INTRODUCED_82_);
constraint int_lin_eq([1,-1,-1],[X_INTRODUCED_24_,X_INTRODUCED_16_,X_INTRODUCED_83_],0):: defines_var(X_INTRODUCED_83_);
constraint int_lin_eq([1,-1,-1],[X_INTRODUCED_18_,X_INTRODUCED_17_,X_INTRODUCED_84_],0):: defines_var(X_INTRODUCED_84_);
constraint int_lin_eq([1,-1,-1],[X_INTRODUCED_19_,X_INTRODUCED_17_,X_INTRODUCED_85_],0):: defines_var(X_INTRODUCED_85_);
constraint int_lin_eq([1,-1,-1],[X_INTRODUCED_20_,X_INTRODUCED_17_,X_INTRODUCED_86_],0):: defines_var(X_INTRODUCED_86_);
constraint int_lin_eq([1,-1,-1],[X_INTRODUCED_21_,X_INTRODUCED_17_,X_INTRODUCED_87_],0):: defines_var(X_INTRODUCED_87_);
constraint int_lin_eq([1,-1,-1],[X_INTRODUCED_22_,X_INTRODUCED_17_,X_INTRODUCED_88_],0):: defines_var(X_INTRODUCED_88_);
constraint int_lin_eq([1,-1,-1],[X_INTRODUCED_23_,X_INTRODUCED_17_,X_INTRODUCED_89_],0):: defines_var(X_INTRODUCED_89_);
constraint int_lin_eq([1,-1,-1],[X_INTRODUCED_24_,X_INTRODUCED_17_,X_INTRODUCED_90_],0):: defines_var(X_INTRODUCED_90_);
constraint int_lin_eq([1,-1,-1],[X_INTRODUCED_19_,X_INTRODUCED_18_,X_INTRODUCED_91_],0):: defines_var(X_INTRODUCED_91_);
constraint int_lin_eq([1,-1,-1],[X_INTRODUCED_20_,X_INTRODUCED_18_,X_INTRODUCED_92_],0):: defines_var(X_INTRODUCED_92_);
constraint int_lin_eq([1,-1,-1],[X_INTRODUCED_21_,X_INTRODUCED_18_,X_INTRODUCED_93_],0):: defines_var(X_INTRODUCED_93_);
constraint int_lin_eq([1,-1,-1],[X_INTRODUCED_22_,X_INTRODUCED_18_,X_INTRODUCED_94_],0):: defines_var(X_INTRODUCED_94_);
constraint int_lin_eq([1,-1,-1],[X_INTRODUCED_23_,X_INTRODUCED_18_,X_INTRODUCED_95_],0):: defines_var(X_INTRODUCED_95_);
constraint int_lin_eq([1,-1,-1],[X_INTRODUCED_24_,X_INTRODUCED_18_,X_INTRODUCED_96_],0):: defines_var(X_INTRODUCED_96_);
constraint int_lin_eq([1,-1,-1],[X_INTRODUCED_20_,X_INTRODUCED_19_,X_INTRODUCED_97_],0):: defines_var(X_INTRODUCED_97_);
constraint int_lin_eq([1,-1,-1],[X_INTRODUCED_21_,X_INTRODUCED_19_,X_INTRODUCED_98_],0):: defines_var(X_INTRODUCED_98_);
constraint int_lin_eq([1,-1,-1],[X_INTRODUCED_22_,X_INTRODUCED_19_,X_INTRODUCED_99_],0):: defines_var(X_INTRODUCED_99_);
constraint int_lin_eq([1,-1,-1],[X_INTRODUCED_23_,X_INTRODUCED_19_,X_INTRODUCED_100_],0):: defines_var(X_INTRODUCED_100_);
constraint int_lin_eq([1,-1,-1],[X_INTRODUCED_24_,X_INTRODUCED_19_,X_INTRODUCED_101_],0):: defines_var(X_INTRODUCED_101_);
constraint int_lin_eq([1,-1,-1],[X_INTRODUCED_21_,X_INTRODUCED_20_,X_INTRODUCED_102_],0):: defines_var(X_INTRODUCED_102_);
constraint int_lin_eq([1,-1,-1],[X_INTRODUCED_22_,X_INTRODUCED_20_,X_INTRODUCED_103_],0):: defines_var(X_INTRODUCED_103_);
constraint int_lin_eq([1,-1,-1],[X_INTRODUCED_23_,X_INTRODUCED_20_,X_INTRODUCED_104_],0):: defines_var(X_INTRODUCED_104_);
constraint int_lin_eq([1,-1,-1],[X_INTRODUCED_24_,X_INTRODUCED_20_,X_INTRODUCED_105_],0):: defines_var(X_INTRODUCED_105_);
constraint int_lin_eq([1,-1,-1],[X_INTRODUCED_22_,X_INTRODUCED_21_,X_INTRODUCED_106_],0):: defines_var(X_INTRODUCED_106_);
constraint int_lin_eq([1,-1,-1],[X_INTRODUCED_23_,X_INTRODUCED_21_,X_INTRODUCED_107_],0):: defines_var(X_INTRODUCED_107_);
constraint int_lin_eq([1,-1,-1],[X_INTRODUCED_24_,X_INTRODUCED_21_,X_INTRODUCED_108_],0):: defines_var(X_INTRODUCED_108_);
constraint int_lin_eq([1,-1,-1],[X_INTRODUCED_23_,X_INTRODUCED_22_,X_INTRODUCED_109_],0):: defines_var(X_INTRODUCED_109_);
constraint int_lin_eq([1,-1,-1],[X_INTRODUCED_24_,X_INTRODUCED_22_,X_INTRODUCED_110_],0):: defines_var(X_INTRODUCED_110_);
constraint int_lin_eq([1,-1,-1],[X_INTRODUCED_24_,X_INTRODUCED_23_,X_INTRODUCED_111_],0):: defines_var(X_INTRODUCED_111_);
constraint int_lin_eq([1,2,-2,-1],[n_star,X_INTRODUCED_24_,X_INTRODUCED_16_,X_INTRODUCED_114_],0):: defines_var(X_INTRODUCED_114_);
constraint int_lin_eq([1,2,-2,-1],[n_star,X_INTRODUCED_24_,X_INTRODUCED_17_,X_INTRODUCED_115_],0):: defines_var(X_INTRODUCED_115_);
constraint int_lin_eq([1,2,-2,-1],[n_star,X_INTRODUCED_24_,X_INTRODUCED_18_,X_INTRODUCED_116_],0):: defines_var(X_INTRODUCED_116_);
constraint int_lin_eq([1,2,-2,-1],[n_star,X_INTRODUCED_24_,X_INTRODUCED_19_,X_INTRODUCED_117_],0):: defines_var(X_INTRODUCED_117_);
constraint int_lin_eq([1,2,-2,-1],[n_star,X_INTRODUCED_24_,X_INTRODUCED_20_,X_INTRODUCED_118_],0):: defines_var(X_INTRODUCED_118_);
constraint int_lin_eq([1,2,-2,-1],[n_star,X_INTRODUCED_24_,X_INTRODUCED_21_,X_INTRODUCED_119_],0):: defines_var(X_INTRODUCED_119_);
constraint int_lin_eq([1,2,-2,-1],[n_star,X_INTRODUCED_24_,X_INTRODUCED_22_,X_INTRODUCED_120_],0):: defines_var(X_INTRODUCED_120_);
constraint int_lin_eq([1,2,-2,-1],[n_star,X_INTRODUCED_24_,X_INTRODUCED_23_,X_INTRODUCED_121_],0):: defines_var(X_INTRODUCED_121_);
constraint int_lin_eq([1,2,-1,-1,-1],[n_star,X_INTRODUCED_24_,X_INTRODUCED_17_,X_INTRODUCED_16_,X_INTRODUCED_124_],0):: defines_var(X_INTRODUCED_124_);
constraint int_lin_eq([1,2,-1,-1,-1],[n_star,X_INTRODUCED_24_,X_INTRODUCED_18_,X_INTRODUCED_16_,X_INTRODUCED_125_],0):: defines_var(X_INTRODUCED_125_);
constraint int_lin_eq([1,2,-1,-1,-1],[n_star,X_INTRODUCED_24_,X_INTRODUCED_19_,X_INTRODUCED_16_,X_INTRODUCED_126_],0):: defines_var(X_INTRODUCED_126_);
constraint int_lin_eq([1,2,-1,-1,-1],[n_star,X_INTRODUCED_24_,X_INTRODUCED_20_,X_INTRODUCED_16_,X_INTRODUCED_127_],0):: defines_var(X_INTRODUCED_127_);
constraint int_lin_eq([1,2,-1,-1,-1],[n_star,X_INTRODUCED_24_,X_INTRODUCED_21_,X_INTRODUCED_16_,X_INTRODUCED_128_],0):: defines_var(X_INTRODUCED_128_);
constraint int_lin_eq([1,2,-1,-1,-1],[n_star,X_INTRODUCED_24_,X_INTRODUCED_22_,X_INTRODUCED_16_,X_INTRODUCED_129_],0):: defines_var(X_INTRODUCED_129_);
constraint int_lin_eq([1,2,-1,-1,-1],[n_star,X_INTRODUCED_24_,X_INTRODUCED_23_,X_INTRODUCED_16_,X_INTRODUCED_130_],0):: defines_var(X_INTRODUCED_130_);
constraint int_lin_eq([1,1,-1,-1],[n_star,X_INTRODUCED_24_,X_INTRODUCED_16_,X_INTRODUCED_131_],0):: defines_var(X_INTRODUCED_131_);
constraint int_lin_eq([1,2,-1,-1,-1],[n_star,X_INTRODUCED_24_,X_INTRODUCED_18_,X_INTRODUCED_17_,X_INTRODUCED_132_],0):: defines_var(X_INTRODUCED_132_);
constraint int_lin_eq([1,2,-1,-1,-1],[n_star,X_INTRODUCED_24_,X_INTRODUCED_19_,X_INTRODUCED_17_,X_INTRODUCED_133_],0):: defines_var(X_INTRODUCED_133_);
constraint int_lin_eq([1,2,-1,-1,-1],[n_star,X_INTRODUCED_24_,X_INTRODUCED_20_,X_INTRODUCED_17_,X_INTRODUCED_134_],0):: defines_var(X_INTRODUCED_134_);
constraint int_lin_eq([1,2,-1,-1,-1],[n_star,X_INTRODUCED_24_,X_INTRODUCED_21_,X_INTRODUCED_17_,X_INTRODUCED_135_],0):: defines_var(X_INTRODUCED_135_);
constraint int_lin_eq([1,2,-1,-1,-1],[n_star,X_INTRODUCED_24_,X_INTRODUCED_22_,X_INTRODUCED_17_,X_INTRODUCED_136_],0):: defines_var(X_INTRODUCED_136_);
constraint int_lin_eq([1,2,-1,-1,-1],[n_star,X_INTRODUCED_24_,X_INTRODUCED_23_,X_INTRODUCED_17_,X_INTRODUCED_137_],0):: defines_var(X_INTRODUCED_137_);
constraint int_lin_eq([1,1,-1,-1],[n_star,X_INTRODUCED_24_,X_INTRODUCED_17_,X_INTRODUCED_138_],0):: defines_var(X_INTRODUCED_138_);
constraint int_lin_eq([1,2,-1,-1,-1],[n_star,X_INTRODUCED_24_,X_INTRODUCED_19_,X_INTRODUCED_18_,X_INTRODUCED_139_],0):: defines_var(X_INTRODUCED_139_);
constraint int_lin_eq([1,2,-1,-1,-1],[n_star,X_INTRODUCED_24_,X_INTRODUCED_20_,X_INTRODUCED_18_,X_INTRODUCED_140_],0):: defines_var(X_INTRODUCED_140_);
constraint int_lin_eq([1,2,-1,-1,-1],[n_star,X_INTRODUCED_24_,X_INTRODUCED_21_,X_INTRODUCED_18_,X_INTRODUCED_141_],0):: defines_var(X_INTRODUCED_141_);
constraint int_lin_eq([1,2,-1,-1,-1],[n_star,X_INTRODUCED_24_,X_INTRODUCED_22_,X_INTRODUCED_18_,X_INTRODUCED_142_],0):: defines_var(X_INTRODUCED_142_);
constraint int_lin_eq([1,2,-1,-1,-1],[n_star,X_INTRODUCED_24_,X_INTRODUCED_23_,X_INTRODUCED_18_,X_INTRODUCED_143_],0):: defines_var(X_INTRODUCED_143_);
constraint int_lin_eq([1,1,-1,-1],[n_star,X_INTRODUCED_24_,X_INTRODUCED_18_,X_INTRODUCED_144_],0):: defines_var(X_INTRODUCED_144_);
constraint int_lin_eq([1,2,-1,-1,-1],[n_star,X_INTRODUCED_24_,X_INTRODUCED_20_,X_INTRODUCED_19_,X_INTRODUCED_145_],0):: defines_var(X_INTRODUCED_145_);
constraint int_lin_eq([1,2,-1,-1,-1],[n_star,X_INTRODUCED_24_,X_INTRODUCED_21_,X_INTRODUCED_19_,X_INTRODUCED_146_],0):: defines_var(X_INTRODUCED_146_);
constraint int_lin_eq([1,2,-1,-1,-1],[n_star,X_INTRODUCED_24_,X_INTRODUCED_22_,X_INTRODUCED_19_,X_INTRODUCED_147_],0):: defines_var(X_INTRODUCED_147_);
constraint int_lin_eq([1,2,-1,-1,-1],[n_star,X_INTRODUCED_24_,X_INTRODUCED_23_,X_INTRODUCED_19_,X_INTRODUCED_148_],0):: defines_var(X_INTRODUCED_148_);
constraint int_lin_eq([1,1,-1,-1],[n_star,X_INTRODUCED_24_,X_INTRODUCED_19_,X_INTRODUCED_149_],0):: defines_var(X_INTRODUCED_149_);
constraint int_lin_eq([1,2,-1,-1,-1],[n_star,X_INTRODUCED_24_,X_INTRODUCED_21_,X_INTRODUCED_20_,X_INTRODUCED_150_],0):: defines_var(X_INTRODUCED_150_);
constraint int_lin_eq([1,2,-1,-1,-1],[n_star,X_INTRODUCED_24_,X_INTRODUCED_22_,X_INTRODUCED_20_,X_INTRODUCED_151_],0):: defines_var(X_INTRODUCED_151_);
constraint int_lin_eq([1,2,-1,-1,-1],[n_star,X_INTRODUCED_24_,X_INTRODUCED_23_,X_INTRODUCED_20_,X_INTRODUCED_152_],0):: defines_var(X_INTRODUCED_152_);
constraint int_lin_eq([1,1,-1,-1],[n_star,X_INTRODUCED_24_,X_INTRODUCED_20_,X_INTRODUCED_153_],0):: defines_var(X_INTRODUCED_153_);
constraint int_lin_eq([1,2,-1,-1,-1],[n_star,X_INTRODUCED_24_,X_INTRODUCED_22_,X_INTRODUCED_21_,X_INTRODUCED_154_],0):: defines_var(X_INTRODUCED_154_);
constraint int_lin_eq([1,2,-1,-1,-1],[n_star,X_INTRODUCED_24_,X_INTRODUCED_23_,X_INTRODUCED_21_,X_INTRODUCED_155_],0):: defines_var(X_INTRODUCED_155_);
constraint int_lin_eq([1,1,-1,-1],[n_star,X_INTRODUCED_24_,X_INTRODUCED_21_,X_INTRODUCED_156_],0):: defines_var(X_INTRODUCED_156_);
constraint int_lin_eq([1,2,-1,-1,-1],[n_star,X_INTRODUCED_24_,X_INTRODUCED_23_,X_INTRODUCED_22_,X_INTRODUCED_157_],0):: defines_var(X_INTRODUCED_157_);
constraint int_lin_eq([1,1,-1,-1],[n_star,X_INTRODUCED_24_,X_INTRODUCED_22_,X_INTRODUCED_158_],0):: defines_var(X_INTRODUCED_158_);
constraint int_lin_eq([1,1,-1,-1],[n_star,X_INTRODUCED_24_,X_INTRODUCED_23_,X_INTRODUCED_159_],0):: defines_var(X_INTRODUCED_159_);
constraint int_lin_eq([2,1,-1],[X_INTRODUCED_24_,n_star,N],0):: defines_var(N);
solve :: int_search(X_INTRODUCED_180_,smallest,indomain_min,complete) minimize N;
